&bands
    prefix='test1',
    outdir='./wavefunc'
/
