&bands
    prefix       = 'Si',
    outdir       = './outdir'
    filband = 'pp.out'
/
