 &control
   calculation  = 'bands',
   prefix       = 'Si',
   pseudo_dir   = '../../pp/PBE/',
   outdir       = './outdir',
   disk_io      = 'low',
   verbosity    = 'high'
/
 &system
   ibrav = 0, 
   nat = 2, ntyp = 1, nbnd = 36,
   ecutwfc = 50,
   occupations = 'smearing', smearing = 'gauss', degauss = 0.01,
 /
 &electrons
   diagonalization = 'david',
   diago_full_acc  = .true.,
   conv_thr        =  1.0D-8,
   mixing_beta     =  0.7,
   startingwfc     = 'random',
 /
  ATOMIC_SPECIES
   Si   28.09   Si.upf
 ATOMIC_POSITIONS crystal
   Si   0.000   0.000   0.000
   Si   0.250   0.250   0.250
 CELL_PARAMETERS angstrom
	2.7155 2.7155 0.0000
	0.0000 2.7155 2.7155
	2.7155 0.0000 2.7155 
 K_POINTS crystal_b
  6
  0.500 0.500 0.500 20
  0.000 0.000 0.000 20
  0.500 0.500 0.000 20
  0.625 0.625 0.250 1
  0.750 0.375 0.375 20
  0.000 0.000 0.000 1
