&control
    calculation = 'bands'
    restart_mode='restart',
    prefix='test1',
    pseudo_dir ='../pseudo/',
    outdir='./wavefunc'
    forc_conv_thr = 1.0d-8
 /
 &system
    ibrav=  0,
    nat=2, ntyp= 1,
    nbnd =16
    ecutwfc =50.0, ecutrho = 200.0,
    occupations = 'smearing',
    degauss = 0.005
    smearing = 'gaussian'
 /
 &electrons
    mixing_mode = 'plain'
    electron_maxstep =100
    scf_must_converge = .false.
    mixing_beta = 0.6
    conv_thr = 1.0d-7
 /
K_POINTS {crystal_b}
4
 0.0 0.0  0.0 41
 0.3333 0.3333 0.0 41
 0.5 0.0 0.0 41
 0.0 0.0  0.0 1

ATOMIC_SPECIES
C 12.011    C_ONCV_PBE-1.2.upf 

CELL_PARAMETERS (angstrom)
2.442895160 -0.000030974 0.000000000
-1.221413771 2.115630212 0.000000000
0.000000000 0.000000000 15.000000000

ATOMIC_POSITIONS (crystal)
C 0.666166125 0.332833875 0.500000000
C 0.332833875 0.666166125 0.500000000
