num_bands   = 16
num_wann    = 8
num_iter    = 1000
conv_window = 3
conv_tol    = 1.0E-13

#dis_froz_min = 
dis_froz_max = 10.5
dis_num_iter = 2000
dis_conv_tol = 5.0E-12

begin atoms_frac
  Si   0.25   0.25  0.25
  Si   0.00   0.00  0.00
end atoms_frac

begin projections
Si:sp3
end projections

guiding_centres = .true.,

begin unit_cell_cart
ang
	2.7155 2.7155 0.0000
	0.0000 2.7155 2.7155
	2.7155 0.0000 2.7155
end unit_cell_cart

#restart = plot

bands_plot = true
bands_num_points = 200
bands_plot_format = gnuplot

begin kpoint_path
L      0.50000 0.50000 0.50000 G     0.00000 0.00000 0.00000
G      0.00000 0.00000 0.00000 X     0.50000 0.50000 0.00000
X      0.50000 0.50000 0.00000  U     0.62500 0.62500 0.25000
K     0.75000 0.37500 0.37500   G     0.00000 0.00000 0.00000
end kpoint_path

mp_grid : 11 11 11 
begin kpoints
    0.000000000000000    0.000000000000000    0.000000000000000    0.0007513148
    0.000000000000000    0.000000000000000    0.090909090909091    0.0007513148
    0.000000000000000    0.000000000000000    0.181818181818182    0.0007513148
    0.000000000000000    0.000000000000000    0.272727272727273    0.0007513148
    0.000000000000000    0.000000000000000    0.363636363636364    0.0007513148
    0.000000000000000    0.000000000000000    0.454545454545455    0.0007513148
    0.000000000000000    0.000000000000000   -0.454545454545455    0.0007513148
    0.000000000000000    0.000000000000000   -0.363636363636364    0.0007513148
    0.000000000000000    0.000000000000000   -0.272727272727273    0.0007513148
    0.000000000000000    0.000000000000000   -0.181818181818182    0.0007513148
    0.000000000000000    0.000000000000000   -0.090909090909091    0.0007513148
    0.000000000000000    0.090909090909091    0.000000000000000    0.0007513148
    0.000000000000000    0.090909090909091    0.090909090909091    0.0007513148
    0.000000000000000    0.090909090909091    0.181818181818182    0.0007513148
    0.000000000000000    0.090909090909091    0.272727272727273    0.0007513148
    0.000000000000000    0.090909090909091    0.363636363636364    0.0007513148
    0.000000000000000    0.090909090909091    0.454545454545455    0.0007513148
    0.000000000000000    0.090909090909091   -0.454545454545455    0.0007513148
    0.000000000000000    0.090909090909091   -0.363636363636364    0.0007513148
    0.000000000000000    0.090909090909091   -0.272727272727273    0.0007513148
    0.000000000000000    0.090909090909091   -0.181818181818182    0.0007513148
    0.000000000000000    0.090909090909091   -0.090909090909091    0.0007513148
    0.000000000000000    0.181818181818182    0.000000000000000    0.0007513148
    0.000000000000000    0.181818181818182    0.090909090909091    0.0007513148
    0.000000000000000    0.181818181818182    0.181818181818182    0.0007513148
    0.000000000000000    0.181818181818182    0.272727272727273    0.0007513148
    0.000000000000000    0.181818181818182    0.363636363636364    0.0007513148
    0.000000000000000    0.181818181818182    0.454545454545455    0.0007513148
    0.000000000000000    0.181818181818182   -0.454545454545455    0.0007513148
    0.000000000000000    0.181818181818182   -0.363636363636364    0.0007513148
    0.000000000000000    0.181818181818182   -0.272727272727273    0.0007513148
    0.000000000000000    0.181818181818182   -0.181818181818182    0.0007513148
    0.000000000000000    0.181818181818182   -0.090909090909091    0.0007513148
    0.000000000000000    0.272727272727273    0.000000000000000    0.0007513148
    0.000000000000000    0.272727272727273    0.090909090909091    0.0007513148
    0.000000000000000    0.272727272727273    0.181818181818182    0.0007513148
    0.000000000000000    0.272727272727273    0.272727272727273    0.0007513148
    0.000000000000000    0.272727272727273    0.363636363636364    0.0007513148
    0.000000000000000    0.272727272727273    0.454545454545455    0.0007513148
    0.000000000000000    0.272727272727273   -0.454545454545455    0.0007513148
    0.000000000000000    0.272727272727273   -0.363636363636364    0.0007513148
    0.000000000000000    0.272727272727273   -0.272727272727273    0.0007513148
    0.000000000000000    0.272727272727273   -0.181818181818182    0.0007513148
    0.000000000000000    0.272727272727273   -0.090909090909091    0.0007513148
    0.000000000000000    0.363636363636364    0.000000000000000    0.0007513148
    0.000000000000000    0.363636363636364    0.090909090909091    0.0007513148
    0.000000000000000    0.363636363636364    0.181818181818182    0.0007513148
    0.000000000000000    0.363636363636364    0.272727272727273    0.0007513148
    0.000000000000000    0.363636363636364    0.363636363636364    0.0007513148
    0.000000000000000    0.363636363636364    0.454545454545455    0.0007513148
    0.000000000000000    0.363636363636364   -0.454545454545455    0.0007513148
    0.000000000000000    0.363636363636364   -0.363636363636364    0.0007513148
    0.000000000000000    0.363636363636364   -0.272727272727273    0.0007513148
    0.000000000000000    0.363636363636364   -0.181818181818182    0.0007513148
    0.000000000000000    0.363636363636364   -0.090909090909091    0.0007513148
    0.000000000000000    0.454545454545455    0.000000000000000    0.0007513148
    0.000000000000000    0.454545454545455    0.090909090909091    0.0007513148
    0.000000000000000    0.454545454545455    0.181818181818182    0.0007513148
    0.000000000000000    0.454545454545455    0.272727272727273    0.0007513148
    0.000000000000000    0.454545454545455    0.363636363636364    0.0007513148
    0.000000000000000    0.454545454545455    0.454545454545455    0.0007513148
    0.000000000000000    0.454545454545455   -0.454545454545455    0.0007513148
    0.000000000000000    0.454545454545455   -0.363636363636364    0.0007513148
    0.000000000000000    0.454545454545455   -0.272727272727273    0.0007513148
    0.000000000000000    0.454545454545455   -0.181818181818182    0.0007513148
    0.000000000000000    0.454545454545455   -0.090909090909091    0.0007513148
    0.000000000000000   -0.454545454545455    0.000000000000000    0.0007513148
    0.000000000000000   -0.454545454545455    0.090909090909091    0.0007513148
    0.000000000000000   -0.454545454545455    0.181818181818182    0.0007513148
    0.000000000000000   -0.454545454545455    0.272727272727273    0.0007513148
    0.000000000000000   -0.454545454545455    0.363636363636364    0.0007513148
    0.000000000000000   -0.454545454545455    0.454545454545455    0.0007513148
    0.000000000000000   -0.454545454545455   -0.454545454545455    0.0007513148
    0.000000000000000   -0.454545454545455   -0.363636363636364    0.0007513148
    0.000000000000000   -0.454545454545455   -0.272727272727273    0.0007513148
    0.000000000000000   -0.454545454545455   -0.181818181818182    0.0007513148
    0.000000000000000   -0.454545454545455   -0.090909090909091    0.0007513148
    0.000000000000000   -0.363636363636364    0.000000000000000    0.0007513148
    0.000000000000000   -0.363636363636364    0.090909090909091    0.0007513148
    0.000000000000000   -0.363636363636364    0.181818181818182    0.0007513148
    0.000000000000000   -0.363636363636364    0.272727272727273    0.0007513148
    0.000000000000000   -0.363636363636364    0.363636363636364    0.0007513148
    0.000000000000000   -0.363636363636364    0.454545454545455    0.0007513148
    0.000000000000000   -0.363636363636364   -0.454545454545455    0.0007513148
    0.000000000000000   -0.363636363636364   -0.363636363636364    0.0007513148
    0.000000000000000   -0.363636363636364   -0.272727272727273    0.0007513148
    0.000000000000000   -0.363636363636364   -0.181818181818182    0.0007513148
    0.000000000000000   -0.363636363636364   -0.090909090909091    0.0007513148
    0.000000000000000   -0.272727272727273    0.000000000000000    0.0007513148
    0.000000000000000   -0.272727272727273    0.090909090909091    0.0007513148
    0.000000000000000   -0.272727272727273    0.181818181818182    0.0007513148
    0.000000000000000   -0.272727272727273    0.272727272727273    0.0007513148
    0.000000000000000   -0.272727272727273    0.363636363636364    0.0007513148
    0.000000000000000   -0.272727272727273    0.454545454545455    0.0007513148
    0.000000000000000   -0.272727272727273   -0.454545454545455    0.0007513148
    0.000000000000000   -0.272727272727273   -0.363636363636364    0.0007513148
    0.000000000000000   -0.272727272727273   -0.272727272727273    0.0007513148
    0.000000000000000   -0.272727272727273   -0.181818181818182    0.0007513148
    0.000000000000000   -0.272727272727273   -0.090909090909091    0.0007513148
    0.000000000000000   -0.181818181818182    0.000000000000000    0.0007513148
    0.000000000000000   -0.181818181818182    0.090909090909091    0.0007513148
    0.000000000000000   -0.181818181818182    0.181818181818182    0.0007513148
    0.000000000000000   -0.181818181818182    0.272727272727273    0.0007513148
    0.000000000000000   -0.181818181818182    0.363636363636364    0.0007513148
    0.000000000000000   -0.181818181818182    0.454545454545455    0.0007513148
    0.000000000000000   -0.181818181818182   -0.454545454545455    0.0007513148
    0.000000000000000   -0.181818181818182   -0.363636363636364    0.0007513148
    0.000000000000000   -0.181818181818182   -0.272727272727273    0.0007513148
    0.000000000000000   -0.181818181818182   -0.181818181818182    0.0007513148
    0.000000000000000   -0.181818181818182   -0.090909090909091    0.0007513148
    0.000000000000000   -0.090909090909091    0.000000000000000    0.0007513148
    0.000000000000000   -0.090909090909091    0.090909090909091    0.0007513148
    0.000000000000000   -0.090909090909091    0.181818181818182    0.0007513148
    0.000000000000000   -0.090909090909091    0.272727272727273    0.0007513148
    0.000000000000000   -0.090909090909091    0.363636363636364    0.0007513148
    0.000000000000000   -0.090909090909091    0.454545454545455    0.0007513148
    0.000000000000000   -0.090909090909091   -0.454545454545455    0.0007513148
    0.000000000000000   -0.090909090909091   -0.363636363636364    0.0007513148
    0.000000000000000   -0.090909090909091   -0.272727272727273    0.0007513148
    0.000000000000000   -0.090909090909091   -0.181818181818182    0.0007513148
    0.000000000000000   -0.090909090909091   -0.090909090909091    0.0007513148
    0.090909090909091    0.000000000000000    0.000000000000000    0.0007513148
    0.090909090909091    0.000000000000000    0.090909090909091    0.0007513148
    0.090909090909091    0.000000000000000    0.181818181818182    0.0007513148
    0.090909090909091    0.000000000000000    0.272727272727273    0.0007513148
    0.090909090909091    0.000000000000000    0.363636363636364    0.0007513148
    0.090909090909091    0.000000000000000    0.454545454545455    0.0007513148
    0.090909090909091    0.000000000000000   -0.454545454545455    0.0007513148
    0.090909090909091    0.000000000000000   -0.363636363636364    0.0007513148
    0.090909090909091    0.000000000000000   -0.272727272727273    0.0007513148
    0.090909090909091    0.000000000000000   -0.181818181818182    0.0007513148
    0.090909090909091    0.000000000000000   -0.090909090909091    0.0007513148
    0.090909090909091    0.090909090909091    0.000000000000000    0.0007513148
    0.090909090909091    0.090909090909091    0.090909090909091    0.0007513148
    0.090909090909091    0.090909090909091    0.181818181818182    0.0007513148
    0.090909090909091    0.090909090909091    0.272727272727273    0.0007513148
    0.090909090909091    0.090909090909091    0.363636363636364    0.0007513148
    0.090909090909091    0.090909090909091    0.454545454545455    0.0007513148
    0.090909090909091    0.090909090909091    0.545454545454546    0.0007513148
    0.090909090909091    0.090909090909091   -0.363636363636364    0.0007513148
    0.090909090909091    0.090909090909091   -0.272727272727273    0.0007513148
    0.090909090909091    0.090909090909091   -0.181818181818182    0.0007513148
    0.090909090909091    0.090909090909091   -0.090909090909091    0.0007513148
    0.090909090909091    0.181818181818182    0.000000000000000    0.0007513148
    0.090909090909091    0.181818181818182    0.090909090909091    0.0007513148
    0.090909090909091    0.181818181818182    0.181818181818182    0.0007513148
    0.090909090909091    0.181818181818182    0.272727272727273    0.0007513148
    0.090909090909091    0.181818181818182    0.363636363636364    0.0007513148
    0.090909090909091    0.181818181818182    0.454545454545455    0.0007513148
    0.090909090909091    0.181818181818182   -0.454545454545455    0.0007513148
    0.090909090909091    0.181818181818182    0.636363636363637    0.0007513148
    0.090909090909091    0.181818181818182   -0.272727272727273    0.0007513148
    0.090909090909091    0.181818181818182   -0.181818181818182    0.0007513148
    0.090909090909091    0.181818181818182   -0.090909090909091    0.0007513148
    0.090909090909091    0.272727272727273    0.000000000000000    0.0007513148
    0.090909090909091    0.272727272727273    0.090909090909091    0.0007513148
    0.090909090909091    0.272727272727273    0.181818181818182    0.0007513148
    0.090909090909091    0.272727272727273    0.272727272727273    0.0007513148
    0.090909090909091    0.272727272727273    0.363636363636364    0.0007513148
    0.090909090909091    0.272727272727273    0.454545454545455    0.0007513148
    0.090909090909091    0.272727272727273   -0.454545454545455    0.0007513148
    0.090909090909091    0.272727272727273   -0.363636363636364    0.0007513148
    0.090909090909091    0.272727272727273   -0.272727272727273    0.0007513148
    0.090909090909091    0.272727272727273   -0.181818181818182    0.0007513148
    0.090909090909091    0.272727272727273   -0.090909090909091    0.0007513148
    0.090909090909091    0.363636363636364    0.000000000000000    0.0007513148
    0.090909090909091    0.363636363636364    0.090909090909091    0.0007513148
    0.090909090909091    0.363636363636364    0.181818181818182    0.0007513148
    0.090909090909091    0.363636363636364    0.272727272727273    0.0007513148
    0.090909090909091    0.363636363636364    0.363636363636364    0.0007513148
    0.090909090909091    0.363636363636364    0.454545454545455    0.0007513148
    0.090909090909091    0.363636363636364   -0.454545454545455    0.0007513148
    0.090909090909091    0.363636363636364   -0.363636363636364    0.0007513148
    0.090909090909091    0.363636363636364   -0.272727272727273    0.0007513148
    0.090909090909091    0.363636363636364   -0.181818181818182    0.0007513148
    0.090909090909091    0.363636363636364   -0.090909090909091    0.0007513148
    0.090909090909091    0.454545454545455    0.000000000000000    0.0007513148
    0.090909090909091    0.454545454545455    0.090909090909091    0.0007513148
    0.090909090909091    0.454545454545455    0.181818181818182    0.0007513148
    0.090909090909091    0.454545454545455    0.272727272727273    0.0007513148
    0.090909090909091    0.454545454545455    0.363636363636364    0.0007513148
    0.090909090909091    0.454545454545455    0.454545454545455    0.0007513148
    0.090909090909091    0.454545454545455   -0.454545454545455    0.0007513148
    0.090909090909091    0.454545454545455   -0.363636363636364    0.0007513148
    0.090909090909091    0.454545454545455   -0.272727272727273    0.0007513148
    0.090909090909091    0.454545454545455   -0.181818181818182    0.0007513148
    0.090909090909091   -0.545454545454546   -0.090909090909091    0.0007513148
    0.090909090909091   -0.454545454545455    0.000000000000000    0.0007513148
    0.090909090909091    0.545454545454546    0.090909090909091    0.0007513148
    0.090909090909091   -0.454545454545455    0.181818181818182    0.0007513148
    0.090909090909091   -0.454545454545455    0.272727272727273    0.0007513148
    0.090909090909091   -0.454545454545455    0.363636363636364    0.0007513148
    0.090909090909091   -0.454545454545455    0.454545454545455    0.0007513148
   -0.909090909090910   -0.454545454545455   -0.454545454545455    0.0007513148
    0.090909090909091    0.545454545454546   -0.363636363636364    0.0007513148
    0.090909090909091    0.545454545454546   -0.272727272727273    0.0007513148
    0.090909090909091    0.545454545454546   -0.181818181818182    0.0007513148
    0.090909090909091    0.545454545454546   -0.090909090909091    0.0007513148
    0.090909090909091   -0.363636363636364    0.000000000000000    0.0007513148
    0.090909090909091   -0.363636363636364    0.090909090909091    0.0007513148
    0.090909090909091    0.636363636363637    0.181818181818182    0.0007513148
    0.090909090909091   -0.363636363636364    0.272727272727273    0.0007513148
    0.090909090909091   -0.363636363636364    0.363636363636364    0.0007513148
    0.090909090909091   -0.363636363636364    0.454545454545455    0.0007513148
    0.090909090909091   -0.363636363636364    0.545454545454546    0.0007513148
    0.090909090909091   -0.363636363636364   -0.363636363636364    0.0007513148
    0.090909090909091   -0.363636363636364   -0.272727272727273    0.0007513148
    0.090909090909091   -0.363636363636364   -0.181818181818182    0.0007513148
    0.090909090909091   -0.363636363636364   -0.090909090909091    0.0007513148
    0.090909090909091   -0.272727272727273    0.000000000000000    0.0007513148
    0.090909090909091   -0.272727272727273    0.090909090909091    0.0007513148
    0.090909090909091   -0.272727272727273    0.181818181818182    0.0007513148
    0.090909090909091   -0.272727272727273    0.272727272727273    0.0007513148
    0.090909090909091   -0.272727272727273    0.363636363636364    0.0007513148
    0.090909090909091   -0.272727272727273    0.454545454545455    0.0007513148
    0.090909090909091   -0.272727272727273    0.545454545454546    0.0007513148
    0.090909090909091   -0.272727272727273   -0.363636363636364    0.0007513148
    0.090909090909091   -0.272727272727273   -0.272727272727273    0.0007513148
    0.090909090909091   -0.272727272727273   -0.181818181818182    0.0007513148
    0.090909090909091   -0.272727272727273   -0.090909090909091    0.0007513148
    0.090909090909091   -0.181818181818182    0.000000000000000    0.0007513148
    0.090909090909091   -0.181818181818182    0.090909090909091    0.0007513148
    0.090909090909091   -0.181818181818182    0.181818181818182    0.0007513148
    0.090909090909091   -0.181818181818182    0.272727272727273    0.0007513148
    0.090909090909091   -0.181818181818182    0.363636363636364    0.0007513148
    0.090909090909091   -0.181818181818182    0.454545454545455    0.0007513148
    0.090909090909091   -0.181818181818182    0.545454545454546    0.0007513148
    0.090909090909091   -0.181818181818182   -0.363636363636364    0.0007513148
    0.090909090909091   -0.181818181818182   -0.272727272727273    0.0007513148
    0.090909090909091   -0.181818181818182   -0.181818181818182    0.0007513148
    0.090909090909091   -0.181818181818182   -0.090909090909091    0.0007513148
    0.090909090909091   -0.090909090909091    0.000000000000000    0.0007513148
    0.090909090909091   -0.090909090909091    0.090909090909091    0.0007513148
    0.090909090909091   -0.090909090909091    0.181818181818182    0.0007513148
    0.090909090909091   -0.090909090909091    0.272727272727273    0.0007513148
    0.090909090909091   -0.090909090909091    0.363636363636364    0.0007513148
    0.090909090909091   -0.090909090909091   -0.545454545454546    0.0007513148
    0.090909090909091   -0.090909090909091    0.545454545454546    0.0007513148
    0.090909090909091   -0.090909090909091   -0.363636363636364    0.0007513148
    0.090909090909091   -0.090909090909091   -0.272727272727273    0.0007513148
    0.090909090909091   -0.090909090909091   -0.181818181818182    0.0007513148
    0.090909090909091   -0.090909090909091   -0.090909090909091    0.0007513148
    0.181818181818182    0.000000000000000    0.000000000000000    0.0007513148
    0.181818181818182    0.000000000000000    0.090909090909091    0.0007513148
    0.181818181818182    0.000000000000000    0.181818181818182    0.0007513148
    0.181818181818182    0.000000000000000    0.272727272727273    0.0007513148
    0.181818181818182    0.000000000000000    0.363636363636364    0.0007513148
    0.181818181818182    0.000000000000000    0.454545454545455    0.0007513148
    0.181818181818182    0.000000000000000   -0.454545454545455    0.0007513148
    0.181818181818182    0.000000000000000   -0.363636363636364    0.0007513148
    0.181818181818182    0.000000000000000   -0.272727272727273    0.0007513148
    0.181818181818182    0.000000000000000   -0.181818181818182    0.0007513148
    0.181818181818182    0.000000000000000   -0.090909090909091    0.0007513148
    0.181818181818182    0.090909090909091    0.000000000000000    0.0007513148
    0.181818181818182    0.090909090909091    0.090909090909091    0.0007513148
    0.181818181818182    0.090909090909091    0.181818181818182    0.0007513148
    0.181818181818182    0.090909090909091    0.272727272727273    0.0007513148
    0.181818181818182    0.090909090909091    0.363636363636364    0.0007513148
    0.181818181818182    0.090909090909091    0.454545454545455    0.0007513148
    0.181818181818182    0.090909090909091   -0.454545454545455    0.0007513148
    0.181818181818182    0.090909090909091    0.636363636363637    0.0007513148
    0.181818181818182    0.090909090909091   -0.272727272727273    0.0007513148
    0.181818181818182    0.090909090909091   -0.181818181818182    0.0007513148
    0.181818181818182    0.090909090909091   -0.090909090909091    0.0007513148
    0.181818181818182    0.181818181818182    0.000000000000000    0.0007513148
    0.181818181818182    0.181818181818182    0.090909090909091    0.0007513148
    0.181818181818182    0.181818181818182    0.181818181818182    0.0007513148
    0.181818181818182    0.181818181818182    0.272727272727273    0.0007513148
    0.181818181818182    0.181818181818182    0.363636363636364    0.0007513148
    0.181818181818182    0.181818181818182    0.454545454545455    0.0007513148
    0.181818181818182    0.181818181818182    0.545454545454546    0.0007513148
    0.181818181818182    0.181818181818182    0.636363636363637    0.0007513148
    0.181818181818182    0.181818181818182   -0.272727272727273    0.0007513148
    0.181818181818182    0.181818181818182   -0.181818181818182    0.0007513148
    0.181818181818182    0.181818181818182   -0.090909090909091    0.0007513148
    0.181818181818182    0.272727272727273    0.000000000000000    0.0007513148
    0.181818181818182    0.272727272727273    0.090909090909091    0.0007513148
    0.181818181818182    0.272727272727273    0.181818181818182    0.0007513148
    0.181818181818182    0.272727272727273    0.272727272727273    0.0007513148
    0.181818181818182    0.272727272727273    0.363636363636364    0.0007513148
    0.181818181818182    0.272727272727273    0.454545454545455    0.0007513148
    0.181818181818182    0.272727272727273    0.545454545454546    0.0007513148
    0.181818181818182    0.272727272727273    0.636363636363637    0.0007513148
    0.181818181818182    0.272727272727273    0.727272727272728    0.0007513148
    0.181818181818182    0.272727272727273   -0.181818181818182    0.0007513148
    0.181818181818182    0.272727272727273   -0.090909090909091    0.0007513148
    0.181818181818182    0.363636363636364    0.000000000000000    0.0007513148
    0.181818181818182    0.363636363636364    0.090909090909091    0.0007513148
    0.181818181818182    0.363636363636364    0.181818181818182    0.0007513148
    0.181818181818182    0.363636363636364    0.272727272727273    0.0007513148
    0.181818181818182    0.363636363636364    0.363636363636364    0.0007513148
    0.181818181818182    0.363636363636364    0.454545454545455    0.0007513148
    0.181818181818182    0.363636363636364   -0.454545454545455    0.0007513148
    0.181818181818182    0.363636363636364   -0.363636363636364    0.0007513148
    0.181818181818182    0.363636363636364    0.727272727272728    0.0007513148
    0.181818181818182    0.363636363636364    0.818181818181819    0.0007513148
    0.181818181818182    0.363636363636364   -0.090909090909091    0.0007513148
    0.181818181818182    0.454545454545455    0.000000000000000    0.0007513148
    0.181818181818182    0.454545454545455    0.090909090909091    0.0007513148
    0.181818181818182    0.454545454545455    0.181818181818182    0.0007513148
    0.181818181818182    0.454545454545455    0.272727272727273    0.0007513148
    0.181818181818182    0.454545454545455    0.363636363636364    0.0007513148
    0.181818181818182    0.454545454545455    0.454545454545455    0.0007513148
   -0.818181818181819   -0.545454545454546   -0.454545454545455    0.0007513148
    0.181818181818182    0.454545454545455   -0.363636363636364    0.0007513148
    0.181818181818182    0.454545454545455   -0.272727272727273    0.0007513148
    0.181818181818182   -0.545454545454546   -0.181818181818182    0.0007513148
    0.181818181818182   -0.545454545454546   -0.090909090909091    0.0007513148
    0.181818181818182   -0.454545454545455    0.000000000000000    0.0007513148
    0.181818181818182   -0.454545454545455    0.090909090909091    0.0007513148
    0.181818181818182    0.545454545454546    0.181818181818182    0.0007513148
    0.181818181818182    0.545454545454546    0.272727272727273    0.0007513148
    0.181818181818182   -0.454545454545455    0.363636363636364    0.0007513148
   -0.818181818181819   -0.454545454545455   -0.545454545454546    0.0007513148
   -0.818181818181819   -0.454545454545455   -0.454545454545455    0.0007513148
   -0.818181818181819   -0.454545454545455   -0.363636363636364    0.0007513148
    0.181818181818182    0.545454545454546   -0.272727272727273    0.0007513148
    0.181818181818182    0.545454545454546   -0.181818181818182    0.0007513148
    0.181818181818182   -0.454545454545455   -0.090909090909091    0.0007513148
    0.181818181818182   -0.363636363636364    0.000000000000000    0.0007513148
    0.181818181818182    0.636363636363637    0.090909090909091    0.0007513148
    0.181818181818182    0.636363636363637    0.181818181818182    0.0007513148
    0.181818181818182    0.636363636363637    0.272727272727273    0.0007513148
    0.181818181818182   -0.363636363636364    0.363636363636364    0.0007513148
    0.181818181818182   -0.363636363636364    0.454545454545455    0.0007513148
   -0.818181818181819   -0.363636363636364   -0.454545454545455    0.0007513148
   -0.818181818181819   -0.363636363636364   -0.363636363636364    0.0007513148
   -0.818181818181819   -0.363636363636364   -0.272727272727273    0.0007513148
    0.181818181818182    0.636363636363637   -0.181818181818182    0.0007513148
    0.181818181818182   -0.363636363636364   -0.090909090909091    0.0007513148
    0.181818181818182   -0.272727272727273    0.000000000000000    0.0007513148
    0.181818181818182   -0.272727272727273    0.090909090909091    0.0007513148
    0.181818181818182   -0.272727272727273    0.181818181818182    0.0007513148
    0.181818181818182    0.727272727272728    0.272727272727273    0.0007513148
    0.181818181818182    0.727272727272728    0.363636363636364    0.0007513148
    0.181818181818182   -0.272727272727273    0.454545454545455    0.0007513148
    0.181818181818182   -0.272727272727273    0.545454545454546    0.0007513148
   -0.818181818181819   -0.272727272727273   -0.363636363636364    0.0007513148
    0.181818181818182   -0.272727272727273   -0.272727272727273    0.0007513148
    0.181818181818182   -0.272727272727273   -0.181818181818182    0.0007513148
    0.181818181818182   -0.272727272727273   -0.090909090909091    0.0007513148
    0.181818181818182   -0.181818181818182    0.000000000000000    0.0007513148
    0.181818181818182   -0.181818181818182    0.090909090909091    0.0007513148
    0.181818181818182   -0.181818181818182    0.181818181818182    0.0007513148
    0.181818181818182   -0.181818181818182    0.272727272727273    0.0007513148
    0.181818181818182    0.818181818181819    0.363636363636364    0.0007513148
    0.181818181818182   -0.181818181818182   -0.545454545454546    0.0007513148
    0.181818181818182   -0.181818181818182    0.545454545454546    0.0007513148
    0.181818181818182   -0.181818181818182    0.636363636363637    0.0007513148
    0.181818181818182   -0.181818181818182   -0.272727272727273    0.0007513148
    0.181818181818182   -0.181818181818182   -0.181818181818182    0.0007513148
    0.181818181818182   -0.181818181818182   -0.090909090909091    0.0007513148
    0.181818181818182   -0.090909090909091    0.000000000000000    0.0007513148
    0.181818181818182   -0.090909090909091    0.090909090909091    0.0007513148
    0.181818181818182   -0.090909090909091    0.181818181818182    0.0007513148
    0.181818181818182   -0.090909090909091    0.272727272727273    0.0007513148
    0.181818181818182   -0.090909090909091    0.363636363636364    0.0007513148
    0.181818181818182   -0.090909090909091   -0.545454545454546    0.0007513148
    0.181818181818182   -0.090909090909091   -0.454545454545455    0.0007513148
    0.181818181818182   -0.090909090909091   -0.363636363636364    0.0007513148
    0.181818181818182   -0.090909090909091   -0.272727272727273    0.0007513148
    0.181818181818182   -0.090909090909091   -0.181818181818182    0.0007513148
    0.181818181818182   -0.090909090909091   -0.090909090909091    0.0007513148
    0.272727272727273    0.000000000000000    0.000000000000000    0.0007513148