&inputpp
    outdir       = './outdir',
    prefix = 'Si_open'
    seedname = 'Si'
    write_mmn = .true.,
    write_amn = .true.,
    write_unk = .true.,
/
