&inputpp
    outdir       = './outdir',
    prefix = 'Si'
/
