&control
    calculation = 'relax'
    restart_mode='from_scratch',
    prefix='test1',
    pseudo_dir ='../pseudo/',
    outdir='./wavefunc'
    forc_conv_thr = 1.0d-8
    tstress = .true.
    tprnfor = .true.
    nstep = 2000
    dt = 40
 /
 &system
    ibrav=  0,
    nat=2, ntyp= 1,
    ecutwfc =50.0, ecutrho = 200.0,
    occupations = 'smearing',
    degauss = 0.005
    smearing = 'gaussian'
 /
 &electrons
    mixing_mode = 'plain'
    electron_maxstep =100
    scf_must_converge = .false.
    mixing_beta = 0.6
    conv_thr = 1.0d-8
 /
 &ions
  ion_dynamics = 'bfgs'
 /
K_POINTS {automatic}
9 9 1 0 0 0

ATOMIC_SPECIES
C 12.011    C_ONCV_PBE-1.2.upf 

CELL_PARAMETERS (angstrom)
2.400000000 -0.000000000 0.000000000
-1.200000000 2.07846096908 0.000000000
0.000000000 0.000000000 15.000000000

ATOMIC_POSITIONS (crystal)
C 0.666000000 0.333000000 0.500000000
C 0.333000000 0.666000000 0.500000000
