&bands
    prefix       = 'NiO',
    outdir       = './outdir'
    filband = 'pp.out'
/
